10
20
450534
0
0
52 52 56 54 54 54 55 54 54 52 53 53 51 53 50 54 54 53 55 55
1
0
39 41 38 41 40 38 40 40 40 37 35 41 36 37 43 38 38 41 37 37
2
0
71 63 67 67 71 65 69 64 66 69 69 63 65 65 68 62 68 64 64 69
3
0
47 48 49 44 52 47 52 48 47 45 47 47 53 46 47 48 49 47 48 49
4
0
55 55 57 54 53 59 59 56 57 55 56 59 56 55 55 60 55 56 54 56
5
0
41 38 41 41 43 40 41 38 42 44 40 45 44 39 42 41 42 42 39 39
6
0
52 59 53 55 56 53 54 55 52 52 55 55 56 54 57 53 54 54 55 55
7
0
47 46 48 45 47 48 48 49 50 47 47 46 42 46 48 46 43 45 41 47
8
0
56 58 56 56 58 57 57 53 60 54 52 56 59 55 57 58 56 54 54 55
9
0
32 30 31 32 30 37 30 33 29 33 32 35 33 30 28 34 30 32 31 31
